(set-option :print-success false)
(set-logic QF_UF)
(declare-sort x94 0)
(declare-sort x128 0)
(declare-fun x122 () x128)
(declare-fun x74 () x128)
(declare-fun x2 (x128 x128) x128)
(declare-fun x1 () x128)
(declare-fun x153 (x128 x128) x128)
(declare-fun x15 () x128)
(declare-fun x21 () x128)
(assert (let ((x46 (x153 x74 x1)) (x44 (x153 x21 x21)) (x148 (x153 x15 x74)) (x73 (x153 x122 x1)) (x89 (x153 x74 x122)) (x151 (x153 x21 x1)) (x119 (x153 x15 x21)) (x86 (x153 x21 x74)) (x146 (x153 x1 x21)) (x121 (x153 x21 x122)) (x39 (x153 x1 x1)) (x56 (x153 x15 x122)) (x106 (x153 x122 x122)) (x105 (x153 x122 x15)) (x88 (x153 x15 x15)) (x115 (x153 x122 x74)) (x49 (x153 x74 x21)) (x134 (x153 x15 x1)) (x103 (x153 x1 x74)) (x48 (x153 x21 x15)) (x111 (x153 x122 x21)) (x50 (x153 x74 x74)) (x152 (x153 x1 x15)) (x147 (x153 x74 x15)) (x91 (x153 x1 x122))) (let ((x135 (not (= x106 x122))) (x3 (not (= x119 x15))) (x12 (not (= x151 x21))) (x107 (not (= x122 x73))) (x138 (not (= x121 x21))) (x133 (not (= x50 x74))) (x137 (not (= x15 x88))) (x81 (not (= x21 x44))) (x75 (not (= x146 x1))) (x62 (not (= x111 x122))) (x47 (not (= x21 x86))) (x45 (not (= x1 x39))) (x35 (not (= x74 x147))) (x30 (not (= x148 x15))) (x72 (not (= x134 x15))) (x71 (not (= x1 x152))) (x38 (not (= x48 x21))) (x66 (not (= x15 x56))) (x93 (not (= x1 x91))) (x27 (not (= x105 x122))) (x98 (not (= x103 x1))) (x101 (not (= x115 x122))) (x60 (not (= x74 x46))) (x129 (not (= x74 x49))) (x69 (not (= x74 x89)))) (or (and (and (and (and (and (or (not (= x152 x21)) x72) (and (or x60 (not (= x103 x21))) (or (not (= x21 x91)) x107))) (or (not (= x39 x21)) x45)) (or x12 (not (= x21 x146)))) (and (and (and (or x138 (not (= x111 x21))) (and (or x93 (not (= x21 x73))) (and (or x66 (not (= x105 x21))) (and (or (not (= x106 x21)) x135) (or (not (= x115 x21)) x69))))) (and (and (and (or (not (= x147 x21)) x30) (and (or x101 (not (= x89 x21))) (or x133 (not (= x50 x21))))) (or (not (= x46 x21)) x98)) (or x47 (not (= x21 x49))))) (and (or x38 (not (= x21 x119))) (and (and (or x137 (not (= x21 x88))) (and (or (not (= x56 x21)) x27) (or (not (= x148 x21)) x35))) (or x71 (not (= x134 x21))))))) (and (and (and (or x38 x3) (and (or x62 x138) (or x47 x129))) (or x75 x12)) (or x81 x81))) (or (or (and (and (and (and (or (not (= x15 x48)) x3) (and (or (not (= x15 x121)) x62) (or (not (= x86 x15)) x129))) (or (not (= x15 x151)) x75)) (or x81 (not (= x15 x44)))) (and (and (and (and (and (and (and (or x135 (not (= x106 x15))) (or x69 (not (= x115 x15)))) (or (not (= x105 x15)) x66)) (or (not (= x15 x73)) x93)) (or (not (= x111 x15)) x138)) (and (or x47 (not (= x49 x15))) (and (or (not (= x46 x15)) x98) (and (or (not (= x15 x147)) x30) (and (or (not (= x50 x15)) x133) (or (not (= x89 x15)) x101)))))) (and (and (and (or x137 x137) (and (or x66 x27) (or x35 x30))) (or x71 x72)) (or x3 x38))) (and (and (and (or x72 (not (= x15 x152))) (and (or x60 (not (= x15 x103))) (or x107 (not (= x91 x15))))) (or x45 (not (= x15 x39)))) (or (not (= x146 x15)) x12)))) (or (and (and (and (and (and (and (and (or x35 (not (= x148 x122))) (or x27 (not (= x122 x56)))) (or (not (= x88 x122)) x137)) (or x71 (not (= x122 x134)))) (or x38 (not (= x122 x119)))) (and (and (and (and (or x30 (not (= x122 x147))) (and (or x101 (not (= x122 x89))) (or (not (= x122 x50)) x133))) (or x98 (not (= x46 x122)))) (or x47 (not (= x49 x122)))) (and (and (or x107 x93) (and (or x27 x66) (and (or x69 x101) (or x135 x135)))) (or x138 x62)))) (and (or (not (= x146 x122)) x12) (and (and (or (not (= x152 x122)) x72) (and (or x60 (not (= x103 x122))) (or x107 (not (= x91 x122))))) (or (not (= x122 x39)) x45)))) (and (and (or (not (= x151 x122)) x75) (and (or x3 (not (= x122 x48))) (and (or (not (= x121 x122)) x62) (or (not (= x86 x122)) x129)))) (or (not (= x122 x44)) x81))) (and (and (and (and (and (and (or x60 (not (= x103 x74))) (or x107 (not (= x74 x91)))) (or x72 (not (= x74 x152)))) (or (not (= x39 x74)) x45)) (or x12 (not (= x146 x74)))) (and (and (or (not (= x74 x119)) x38) (and (and (or (not (= x88 x74)) x137) (and (or x27 (not (= x74 x56))) (or (not (= x74 x148)) x35))) (or x71 (not (= x134 x74))))) (and (and (or x47 x129) (and (and (or x30 x35) (and (or x69 x101) (or x133 x133))) (or x60 x98))) (and (or x138 (not (= x74 x111))) (and (or x93 (not (= x73 x74))) (and (and (or (not (= x74 x106)) x135) (or (not (= x74 x115)) x69)) (or (not (= x105 x74)) x66))))))) (and (and (and (or (not (= x74 x48)) x3) (and (or x62 (not (= x121 x74))) (or x129 (not (= x86 x74))))) (or x75 (not (= x74 x151)))) (or (not (= x74 x44)) x81))))) (and (and (and (and (and (or x72 x71) (and (or x107 x93) (or x98 x60))) (or x45 x45)) (or x75 x12)) (and (and (and (and (and (and (or (not (= x115 x1)) x69) (or (not (= x1 x106)) x135)) (or x66 (not (= x105 x1)))) (or x93 (not (= x73 x1)))) (or (not (= x1 x111)) x138)) (and (and (and (and (or x133 (not (= x50 x1))) (or (not (= x89 x1)) x101)) (or x30 (not (= x1 x147)))) (or (not (= x1 x46)) x98)) (or (not (= x1 x49)) x47))) (and (and (or x71 (not (= x134 x1))) (and (and (or x35 (not (= x148 x1))) (or (not (= x1 x56)) x27)) (or x137 (not (= x88 x1))))) (or (not (= x1 x119)) x38)))) (and (and (or (not (= x1 x151)) x75) (and (or x3 (not (= x48 x1))) (and (or (not (= x121 x1)) x62) (or (not (= x86 x1)) x129)))) (or (not (= x1 x44)) x81))))))))
(assert (let ((x133 (= x74 (x153 x74 x74))) (x106 (= x1 (x153 x1 x1))) (x115 (= (x153 x122 x122) x122)) (x148 (= (x153 x21 x21) x21)) (x69 (= x15 (x153 x15 x15)))) (and (and (and (and (and (or (not (= x21 (x153 x21 x74))) x133) (or x115 (not (= (x153 x21 x122) x21)))) (or (not (= x21 (x153 x21 x15))) x69)) (or x106 (not (= (x153 x21 x1) x21)))) (or (not x148) x148)) (and (and (and (and (or (not (= x15 (x153 x15 x1))) x106) (and (or (not x69) x69) (and (or x115 (not (= (x153 x15 x122) x15))) (or (not (= (x153 x15 x74) x15)) x133)))) (or (not (= x15 (x153 x15 x21))) x148)) (and (and (or x148 (not (= x122 (x153 x122 x21)))) (and (and (and (or x133 (not (= (x153 x122 x74) x122))) (or (not x115) x115)) (or x69 (not (= (x153 x122 x15) x122)))) (or (not (= (x153 x122 x1) x122)) x106))) (and (and (or x106 (not (= (x153 x74 x1) x74))) (and (or x69 (not (= x74 (x153 x74 x15)))) (and (or x115 (not (= (x153 x74 x122) x74))) (or x133 (not x133))))) (or x148 (not (= x74 (x153 x74 x21))))))) (and (and (or (not x106) x106) (and (or (not (= x1 (x153 x1 x15))) x69) (and (or x115 (not (= x1 (x153 x1 x122)))) (or x133 (not (= (x153 x1 x74) x1)))))) (or x148 (not (= (x153 x1 x21) x1))))))))
(assert (let ((x106 (x153 x1 x1)) (x148 (x153 x21 x21)) (x69 (x153 x15 x15)) (x115 (x153 x122 x122)) (x133 (x153 x74 x74))) (or (and (not (= x21 x148)) (and (not (= x106 x21)) (and (and (not (= x133 x21)) (not (= x21 x115))) (not (= x21 x69))))) (or (or (and (not (= x15 x148)) (and (and (and (not (= x15 x133)) (not (= x115 x15))) (not (= x15 x69))) (not (= x15 x106)))) (or (and (not (= x148 x122)) (and (and (not (= x69 x122)) (and (not (= x115 x122)) (not (= x122 x133)))) (not (= x106 x122)))) (and (and (and (not (= x74 x69)) (and (not (= x74 x133)) (not (= x115 x74)))) (not (= x106 x74))) (not (= x74 x148))))) (and (not (= x1 x148)) (and (not (= x106 x1)) (and (not (= x1 x69)) (and (not (= x133 x1)) (not (= x1 x115))))))))))
(assert (let ((x119 (x153 x122 x21)) (x89 (x153 x21 x122)) (x149 (x153 x21 x1)) (x41 (x153 x21 x21)) (x148 (x153 x74 x1)) (x35 (x153 x74 x21)) (x38 (x153 x15 x15)) (x88 (x153 x15 x74)) (x69 (x153 x74 x122)) (x111 (x153 x122 x15)) (x115 (x153 x74 x74)) (x48 (x153 x122 x1)) (x106 (x153 x74 x15)) (x103 (x153 x1 x74)) (x11 (x153 x1 x1)) (x70 (x153 x1 x21)) (x81 (x153 x1 x15)) (x18 (x153 x21 x15)) (x45 (x153 x15 x21)) (x105 (x153 x122 x74)) (x60 (x153 x21 x74)) (x50 (x153 x1 x122)) (x121 (x153 x122 x122)) (x72 (x153 x15 x1)) (x44 (x153 x15 x122))) (let ((x49 (= x1 x121)) (x120 (= x21 x72)) (x51 (= x1 x38)) (x135 (= x21 x69)) (x39 (= x69 x74)) (x23 (= x60 x21)) (x157 (= x119 x15)) (x62 (= x74 x111)) (x29 (= x88 x15)) (x99 (= x50 x74)) (x52 (= x119 x1)) (x76 (= x122 x41)) (x155 (= x74 x70)) (x34 (= x45 x15)) (x24 (= x103 x122)) (x116 (= x1 x111)) (x96 (= x1 x72)) (x108 (= x1 x18)) (x57 (= x21 x11)) (x104 (= x15 x70)) (x80 (= x122 x11)) (x75 (= x122 x38)) (x154 (= x21 x48)) (x102 (= x1 x45)) (x3 (= x111 x122)) (x20 (= x72 x122)) (x63 (= x122 x149)) (x87 (= x122 x119)) (x159 (= x48 x15)) (x146 (= x121 x122)) (x4 (= x148 x74)) (x22 (= x45 x74)) (x30 (= x15 x121)) (x31 (= x48 x1)) (x158 (= x50 x1)) (x14 (= x35 x1)) (x9 (= x44 x21)) (x150 (= x74 x81)) (x93 (= x106 x74)) (x156 (= x122 x18)) (x90 (= x72 x74)) (x140 (= x70 x122)) (x133 (= x74 x115)) (x136 (= x89 x122)) (x92 (= x70 x21)) (x114 (= x35 x122)) (x19 (= x74 x41)) (x66 (= x74 x88)) (x124 (= x1 x44)) (x100 (= x89 x21)) (x143 (= x111 x21)) (x61 (= x122 x45)) (x7 (= x15 x106)) (x64 (= x38 x21)) (x79 (= x15 x81)) (x123 (= x11 x15)) (x126 (= x1 x11)) (x134 (= x105 x74)) (x13 (= x1 x148)) (x42 (= x72 x15)) (x86 (= x121 x74)) (x139 (= x18 x74)) (x65 (= x111 x15)) (x37 (= x60 x122)) (x107 (= x44 x74)) (x147 (= x69 x15)) (x97 (= x74 x11)) (x33 (= x50 x15)) (x91 (= x115 x15)) (x25 (= x119 x21)) (x131 (= x106 x21)) (x132 (= x1 x41)) (x73 (= x1 x115)) (x17 (= x148 x15)) (x53 (= x74 x60)) (x68 (= x103 x1)) (x95 (= x15 x89)) (x55 (= x149 x74)) (x151 (= x122 x69)) (x77 (= x74 x48)) (x59 (= x50 x122)) (x145 (= x1 x81)) (x101 (= x15 x105)) (x109 (= x15 x103)) (x117 (= x89 x1)) (x78 (= x81 x21)) (x152 (= x21 x115)) (x110 (= x74 x89)) (x67 (= x21 x103)) (x28 (= x149 x15)) (x58 (= x21 x45)) (x36 (= x1 x60)) (x71 (= x122 x44)) (x130 (= x15 x35)) (x137 (= x88 x122)) (x138 (= x38 x74)) (x83 (= x35 x21)) (x12 (= x106 x122)) (x6 (= x88 x1)) (x56 (= x122 x115)) (x142 (= x119 x74)) (x40 (= x106 x1)) (x47 (= x21 x105)) (x141 (= x74 x35)) (x125 (= x38 x15)) (x16 (= x21 x50)) (x113 (= x122 x81)) (x112 (= x148 x122)) (x43 (= x149 x1)) (x5 (= x21 x41)) (x118 (= x21 x149)) (x32 (= x41 x15)) (x46 (= x1 x105)) (x84 (= x15 x60)) (x144 (= x15 x18)) (x85 (= x1 x70)) (x129 (= x122 x105)) (x8 (= x44 x15)) (x27 (= x121 x21)) (x26 (= x21 x18)) (x127 (= x88 x21)) (x82 (= x74 x103)) (x10 (= x148 x21)) (x54 (= x48 x122)) (x98 (= x69 x1))) (and (and (and (and (and (and (and (or (or (or x6 (or x46 x73)) x68) x36) (or (or (or x40 (or x98 x73)) x13) x14)) (and (and (or (or x17 (or (or x147 x91) x7)) x130) (or (or x109 (or (or x91 x101) x29)) x84)) (and (and (or x114 (or x112 (or (or x56 x151) x12))) (or (or (or (or x56 x129) x137) x24) x37)) (and (or (or x82 (or x66 (or x134 x133))) x53) (or (or x4 (or (or x39 x133) x93)) x141))))) (and (or (or (or x131 (or x152 x135)) x10) x83) (or (or x67 (or (or x47 x152) x127)) x23))) (and (and (or (or x154 (or x143 (or x27 x47))) x25) (or (or (or (or x135 x27) x9) x16) x100)) (and (and (and (or (or x33 (or (or x30 x147) x8)) x95) (or (or (or (or x30 x101) x65) x159) x157)) (and (and (or (or (or x107 (or x39 x86)) x99) x110) (or (or (or x62 (or x134 x86)) x77) x142)) (and (or x87 (or x54 (or x3 (or x146 x129)))) (or x136 (or (or x71 (or x146 x151)) x59))))) (and (or x52 (or x31 (or (or x46 x49) x116))) (or x117 (or (or (or x49 x98) x124) x158)))))) (and (and (or (or (or x64 (or x143 x131)) x78) x26) (or (or x120 (or (or x9 x127) x64)) x58)) (and (and (and (and (or (or x113 (or (or x12 x3) x75)) x156) (or (or (or x75 (or x137 x71)) x20) x61)) (and (or x139 (or (or (or x93 x62) x138) x150)) (or (or (or (or x107 x66) x138) x90) x22))) (and (or x34 (or (or (or x8 x29) x125) x42)) (or (or x79 (or (or x7 x65) x125)) x144))) (and (or (or (or (or x40 x116) x51) x145) x108) (or (or (or x51 (or x6 x124)) x96) x102))))) (and (and (or (or (or x78 (or x16 x67)) x57) x92) (or x118 (or x57 (or (or x10 x154) x120)))) (and (and (and (or x104 (or x123 (or x79 (or x33 x109)))) (or (or (or x42 (or x17 x159)) x123) x28)) (and (and (or x140 (or x80 (or (or x24 x59) x113))) (or (or x80 (or x20 (or x54 x112))) x63)) (and (or x155 (or x97 (or x150 (or x82 x99)))) (or x55 (or (or x90 (or x4 x77)) x97))))) (and (or (or (or x145 (or x158 x68)) x126) x85) (or x43 (or x126 (or x96 (or x13 x31)))))))) (and (and (or x5 (or (or (or x25 x83) x58) x92)) (or x5 (or x118 (or (or x23 x100) x26)))) (and (and (or (or (or (or x36 x117) x108) x43) x132) (or x132 (or x85 (or (or x14 x52) x102)))) (and (and (or x32 (or (or (or x157 x130) x34) x104)) (or (or (or (or x95 x84) x144) x28) x32)) (and (and (or x19 (or (or (or x141 x142) x22) x155)) (or x19 (or (or x139 (or x110 x53)) x55))) (and (or (or (or (or x87 x114) x61) x140) x76) (or (or x63 (or x156 (or x37 x136))) x76))))))))))
(assert (let ((x119 (x153 x122 x21)) (x73 (x153 x15 x15)) (x69 (x153 x15 x74)) (x133 (x153 x74 x74)) (x111 (x153 x21 x1)) (x148 (x153 x21 x74)) (x39 (x153 x74 x1)) (x152 (x153 x1 x15)) (x129 (x153 x15 x1)) (x115 (x153 x122 x74)) (x103 (x153 x21 x122)) (x56 (x153 x122 x122)) (x44 (x153 x21 x21)) (x146 (x153 x1 x21)) (x88 (x153 x1 x122)) (x86 (x153 x122 x1)) (x121 (x153 x1 x1)) (x105 (x153 x15 x122)) (x60 (x153 x74 x15)) (x91 (x153 x122 x15)) (x35 (x153 x74 x122)) (x134 (x153 x21 x15)) (x151 (x153 x15 x21)) (x48 (x153 x74 x21)) (x106 (x153 x1 x74))) (and (and (and (and (and (and (and (and (and (not (= x56 x103)) (and (not (= x56 x88)) (and (not (= x56 x105)) (and (and (and (not (= x35 x105)) (not (= x35 x56))) (not (= x88 x35))) (not (= x103 x35)))))) (not (= x88 x105))) (not (= x105 x103))) (not (= x103 x88))) (and (and (and (not (= x106 x69)) (and (and (not (= x106 x115)) (and (and (and (and (not (= x133 x69)) (not (= x133 x115))) (not (= x133 x106))) (not (= x148 x133))) (not (= x115 x69)))) (not (= x115 x148)))) (not (= x69 x148))) (not (= x106 x148)))) (and (not (= x152 x134)) (and (and (not (= x73 x152)) (and (and (not (= x152 x91)) (and (and (and (and (not (= x91 x60)) (not (= x60 x73))) (not (= x60 x152))) (not (= x134 x60))) (not (= x73 x91)))) (not (= x134 x91)))) (not (= x134 x73))))) (and (not (= x121 x111)) (and (and (and (not (= x111 x86)) (and (not (= x121 x86)) (and (and (not (= x39 x111)) (and (and (not (= x86 x39)) (not (= x129 x39))) (not (= x39 x121)))) (not (= x86 x129))))) (not (= x129 x121))) (not (= x111 x129))))) (and (not (= x44 x146)) (and (and (and (not (= x119 x44)) (and (not (= x119 x146)) (and (not (= x151 x119)) (and (not (= x44 x48)) (and (not (= x146 x48)) (and (not (= x48 x151)) (not (= x48 x119)))))))) (not (= x146 x151))) (not (= x151 x44))))) (and (and (and (and (and (not (= x103 x44)) (and (and (and (not (= x148 x44)) (and (and (not (= x148 x103)) (not (= x134 x148))) (not (= x111 x148)))) (not (= x134 x103))) (not (= x103 x111)))) (not (= x111 x134))) (not (= x44 x134))) (not (= x44 x111))) (and (and (and (not (= x129 x151)) (and (not (= x151 x73)) (and (not (= x129 x73)) (and (not (= x105 x151)) (and (and (not (= x73 x105)) (and (not (= x69 x151)) (and (and (not (= x73 x69)) (not (= x105 x69))) (not (= x69 x129))))) (not (= x105 x129))))))) (and (and (and (and (not (= x39 x60)) (and (and (not (= x35 x39)) (and (and (and (not (= x133 x39)) (and (not (= x60 x133)) (not (= x133 x35)))) (not (= x48 x133))) (not (= x60 x35)))) (not (= x48 x35)))) (not (= x60 x48))) (not (= x48 x39))) (and (not (= x86 x119)) (and (and (not (= x86 x91)) (and (not (= x119 x56)) (and (and (not (= x56 x91)) (and (and (and (not (= x115 x91)) (not (= x115 x56))) (not (= x86 x115))) (not (= x119 x115)))) (not (= x56 x86))))) (not (= x119 x91)))))) (and (and (not (= x152 x146)) (and (not (= x152 x121)) (and (not (= x88 x146)) (and (not (= x88 x121)) (and (not (= x152 x88)) (and (and (not (= x106 x121)) (and (not (= x106 x88)) (not (= x106 x152)))) (not (= x106 x146)))))))) (not (= x121 x146))))))))
(assert (let ((x148 (x153 x21 x21)) (x69 (x153 x15 x15)) (x133 (x153 x74 x74)) (x115 (x153 x122 x122)) (x106 (x153 x1 x1))) (and (and (and (= (x153 x69 x69) x69) (and (= (x153 x115 x115) x115) (= x133 (x153 x133 x133)))) (= (x153 x106 x106) x106)) (= (x153 x148 x148) x148))))
(assert (not (and (= (x153 x21 x21) x74) (and (= x21 (x153 x21 x1)) (and (= x122 (x153 x21 x15)) (and (= x15 (x153 x21 x122)) (and (and (= (x153 x1 x21) x122) (and (and (= (x153 x1 x15) x74) (and (= x21 (x153 x1 x122)) (and (and (= x1 (x153 x15 x21)) (and (= x74 (x153 x15 x1)) (and (= (x153 x15 x15) x15) (and (= (x153 x15 x122) x122) (and (and (and (and (= x1 (x153 x122 x15)) (and (= (x153 x122 x122) x74) (and (and (and (and (= (x153 x74 x15) x21) (and (= x1 (x153 x74 x122)) (= (x153 x74 x74) x74))) (= (x153 x74 x1) x122)) (= x15 (x153 x74 x21))) (= (x153 x122 x74) x122)))) (= (x153 x122 x1) x15)) (= x21 (x153 x122 x21))) (= x21 (x153 x15 x74))))))) (= (x153 x1 x74) x15)))) (= x1 (x153 x1 x1)))) (= x1 (x153 x21 x74)))))))))
(assert (let ((x103 (x153 x21 x74)) (x66 (x153 x1 x1)) (x38 (x153 x21 x1)) (x86 (x153 x74 x21)) (x73 (x153 x74 x122)) (x89 (x153 x15 x122)) (x71 (x153 x21 x15)) (x27 (x153 x1 x15)) (x134 (x153 x74 x15)) (x72 (x153 x21 x21)) (x105 (x153 x1 x74)) (x46 (x153 x15 x21)) (x39 (x153 x74 x1)) (x115 (x153 x74 x74)) (x106 (x153 x122 x74)) (x146 (x153 x122 x21)) (x107 (x153 x1 x21)) (x30 (x153 x15 x1)) (x151 (x153 x122 x1)) (x138 (x153 x21 x122)) (x35 (x153 x15 x74)) (x111 (x153 x122 x122)) (x47 (x153 x1 x122)) (x119 (x153 x122 x15)) (x147 (x153 x15 x15))) (let ((x33 (= x35 x1)) (x121 (= x111 x74)) (x97 (= x73 x1)) (x129 (= x122 x106)) (x53 (= x38 x1)) (x158 (= x105 x1)) (x8 (= x111 x15)) (x24 (= x39 x122)) (x70 (= x106 x1)) (x137 (= x122 x138)) (x140 (= x1 x146)) (x139 (= x86 x74)) (x4 (= x71 x15)) (x82 (= x71 x74)) (x148 (= x74 x35)) (x51 (= x105 x15)) (x37 (= x21 x86)) (x26 (= x21 x138)) (x104 (= x1 x46)) (x42 (= x147 x1)) (x96 (= x1 x27)) (x152 (= x122 x73)) (x150 (= x71 x122)) (x60 (= x122 x115)) (x136 (= x106 x21)) (x124 (= x15 x89)) (x18 (= x106 x15)) (x118 (= x122 x72)) (x92 (= x1 x72)) (x25 (= x72 x15)) (x84 (= x35 x21)) (x50 (= x89 x74)) (x64 (= x103 x15)) (x22 (= x15 x86)) (x112 (= x74 x151)) (x149 (= x15 x151)) (x10 (= x1 x138)) (x130 (= x21 x147)) (x17 (= x89 x1)) (x56 (= x105 x74)) (x131 (= x122 x27)) (x144 (= x21 x89)) (x49 (= x47 x74)) (x142 (= x21 x134)) (x48 (= x122 x111)) (x113 (= x39 x15)) (x45 (= x115 x15)) (x141 (= x122 x86)) (x120 (= x71 x1)) (x44 (= x122 x35)) (x143 (= x15 x27)) (x133 (= x115 x74)) (x100 (= x72 x74)) (x6 (= x74 x147)) (x52 (= x15 x107)) (x99 (= x15 x138)) (x69 (= x74 x106)) (x83 (= x71 x21)) (x62 (= x74 x138)) (x157 (= x15 x46)) (x123 (= x30 x15)) (x154 (= x122 x38)) (x90 (= x39 x74)) (x5 (= x72 x21)) (x91 (= x74 x73)) (x54 (= x1 x111)) (x114 (= x21 x119)) (x110 (= x21 x115)) (x135 (= x47 x122)) (x101 (= x122 x89)) (x29 (= x74 x119)) (x40 (= x147 x122)) (x63 (= x111 x21)) (x36 (= x105 x21)) (x65 (= x119 x15)) (x155 (= x21 x39)) (x102 (= x21 x66)) (x31 (= x66 x122)) (x14 (= x21 x27)) (x19 (= x1 x86)) (x68 (= x1 x30)) (x78 (= x74 x38)) (x75 (= x122 x134)) (x32 (= x21 x46)) (x58 (= x21 x38)) (x41 (= x146 x122)) (x159 (= x122 x30)) (x16 (= x1 x103)) (x12 (= x134 x74)) (x59 (= x1 x134)) (x95 (= x74 x46)) (x34 (= x21 x30)) (x3 (= x73 x15)) (x9 (= x47 x15)) (x67 (= x1 x66)) (x125 (= x35 x15)) (x76 (= x21 x146)) (x55 (= x73 x21)) (x93 (= x122 x103)) (x108 (= x47 x21)) (x126 (= x15 x66)) (x87 (= x146 x15)) (x23 (= x21 x103)) (x61 (= x151 x21)) (x156 (= x74 x146)) (x117 (= x74 x107)) (x57 (= x15 x38)) (x11 (= x39 x1)) (x79 (= x30 x74)) (x43 (= x107 x122)) (x7 (= x119 x122)) (x77 (= x115 x1)) (x98 (= x105 x122)) (x28 (= x122 x46)) (x13 (= x1 x47)) (x127 (= x27 x74)) (x116 (= x15 x147)) (x132 (= x21 x107)) (x88 (= x74 x103)) (x80 (= x119 x1)) (x85 (= x1 x107)) (x145 (= x74 x66)) (x20 (= x122 x151)) (x109 (= x151 x1)) (x81 (= x134 x15))) (or (or (or (and (and (and (and (and (and (and (and (or (not x18) x29) (or x7 (not x8))) (or x65 (not x65))) (or (not x149) x80)) (or (not x87) x114)) (and (and (and (and (or (not x45) x12) (or (not x3) x75)) (or x81 (not x81))) (or x59 (not x113))) (or x142 (not x22)))) (and (and (or x42 (not x123)) (and (or x116 (not x116)) (and (or x40 (not x124)) (or (not x125) x6)))) (or x130 (not x157)))) (and (and (and (and (or (not x9) x131) (or x127 (not x51))) (or x143 (not x143))) (or (not x126) x96)) (or (not x52) x14))) (and (or (not x25) x83) (and (or x120 (not x57)) (and (or x4 (not x4)) (and (or x82 (not x64)) (or x150 (not x99))))))) (or (and (and (and (and (or (not x82) x64) (and (or x93 (not x62)) (or x88 (not x88)))) (or x16 (not x78))) (or x23 (not x100))) (and (and (and (or x158 (not x145)) (and (or (not x127) x51) (and (or (not x56) x56) (or (not x49) x98)))) (or (not x117) x36)) (and (and (or (not x95) x84) (and (and (and (or (not x50) x44) (or (not x148) x148)) (or x125 (not x6))) (or (not x79) x33))) (and (and (or (not x156) x136) (and (and (or (not x29) x18) (and (or x69 (not x69)) (or (not x121) x129))) (or (not x112) x70))) (and (or (not x139) x110) (and (or x77 (not x90)) (and (or x45 (not x12)) (and (or (not x133) x133) (or (not x91) x60))))))))) (and (and (and (or x10 (not x154)) (and (and (or (not x93) x62) (or (not x137) x137)) (or (not x150) x99))) (or x26 (not x118))) (and (and (and (and (or (not x159) x17) (and (or x124 (not x40)) (and (or x50 (not x44)) (or (not x101) x101)))) (or (not x28) x144)) (and (and (and (and (or (not x75) x3) (and (or (not x60) x91) (or (not x152) x152))) (or (not x24) x97)) (or x55 (not x141))) (and (or (not x41) x63) (and (and (and (or x121 (not x129)) (or x48 (not x48))) (or x8 (not x7))) (or x54 (not x20)))))) (and (and (and (and (or x135 (not x135)) (or x49 (not x98))) (or x9 (not x131))) (or (not x31) x13)) (or (not x43) x108)))))) (and (and (or (not x92) x58) (and (and (and (or x78 (not x16)) (or x154 (not x10))) (or (not x120) x57)) (or (not x53) x53))) (and (and (and (or (not x67) x67) (and (and (or x31 (not x13)) (or (not x158) x145)) (or (not x96) x126))) (or x102 (not x85))) (and (and (and (and (or (not x11) x11) (and (and (or x90 (not x77)) (or (not x97) x24)) (or (not x59) x113))) (or x155 (not x19))) (and (or (not x140) x61) (and (or (not x109) x109) (and (and (or (not x54) x20) (or x112 (not x70))) (or (not x80) x149))))) (and (or x34 (not x104)) (and (and (and (or (not x33) x79) (or x159 (not x17))) (or x123 (not x42))) (or x68 (not x68)))))))) (and (and (and (or (not x132) x132) (and (and (or (not x14) x52) (and (or (not x108) x43) (or x117 (not x36)))) (or (not x102) x85))) (and (and (or (not x32) x32) (and (or x104 (not x34)) (and (or x157 (not x130)) (and (or (not x144) x28) (or (not x84) x95))))) (and (and (or (not x37) x37) (and (and (or (not x142) x22) (and (or (not x55) x141) (or x139 (not x110)))) (or (not x155) x19))) (and (or (not x76) x76) (and (or x140 (not x61)) (and (and (or x41 (not x63)) (or x156 (not x136))) (or (not x114) x87))))))) (and (and (and (or (not x83) x25) (and (or (not x26) x118) (or x100 (not x23)))) (or (not x58) x92)) (or x5 (not x5))))))))
(assert (let ((x106 (x153 x1 x1)) (x148 (x153 x21 x21)) (x69 (x153 x15 x15)) (x115 (x153 x122 x122)) (x133 (x153 x74 x74))) (and (or (= (x153 x148 x21) x21) (or (or (= x15 (x153 x148 x15)) (or (= x122 (x153 x148 x122)) (= (x153 x148 x74) x74))) (= (x153 x148 x1) x1))) (and (or (or (or (= x15 (x153 x106 x15)) (or (= (x153 x106 x74) x74) (= x122 (x153 x106 x122)))) (= x1 (x153 x106 x1))) (= (x153 x106 x21) x21)) (and (or (= (x153 x69 x21) x21) (or (= (x153 x69 x1) x1) (or (= x15 (x153 x69 x15)) (or (= (x153 x69 x122) x122) (= x74 (x153 x69 x74)))))) (and (or (= x21 (x153 x115 x21)) (or (= (x153 x115 x1) x1) (or (or (= (x153 x115 x122) x122) (= x74 (x153 x115 x74))) (= (x153 x115 x15) x15)))) (or (or (= (x153 x133 x1) x1) (or (or (= (x153 x133 x122) x122) (= x74 (x153 x133 x74))) (= x15 (x153 x133 x15)))) (= (x153 x133 x21) x21))))))))
(assert (or (and (and (and (not (= (x153 (x153 x15 x21) x21) x15)) (and (not (= x74 (x153 (x153 x74 x21) x21))) (not (= x122 (x153 (x153 x122 x21) x21))))) (not (= (x153 (x153 x1 x21) x21) x1))) (not (= (x153 (x153 x21 x21) x21) x21))) (or (or (or (and (not (= x21 (x153 (x153 x21 x74) x74))) (and (and (and (not (= x74 (x153 (x153 x74 x74) x74))) (not (= (x153 (x153 x122 x74) x74) x122))) (not (= (x153 (x153 x15 x74) x74) x15))) (not (= (x153 (x153 x1 x74) x74) x1)))) (and (not (= x21 (x153 (x153 x21 x122) x122))) (and (not (= x1 (x153 (x153 x1 x122) x122))) (and (and (not (= (x153 (x153 x74 x122) x122) x74)) (not (= x122 (x153 (x153 x122 x122) x122)))) (not (= x15 (x153 (x153 x15 x122) x122))))))) (and (not (= (x153 (x153 x21 x15) x15) x21)) (and (not (= x1 (x153 (x153 x1 x15) x15))) (and (not (= x15 (x153 (x153 x15 x15) x15))) (and (not (= x74 (x153 (x153 x74 x15) x15))) (not (= x122 (x153 (x153 x122 x15) x15)))))))) (and (and (not (= x1 (x153 (x153 x1 x1) x1))) (and (and (not (= x122 (x153 (x153 x122 x1) x1))) (not (= (x153 (x153 x74 x1) x1) x74))) (not (= x15 (x153 (x153 x15 x1) x1))))) (not (= (x153 (x153 x21 x1) x1) x21))))))
(assert (or (and (not (= x21 (x153 (x153 x21 x21) x21))) (and (and (and (not (= (x153 (x153 x21 x74) x21) x74)) (not (= x122 (x153 (x153 x21 x122) x21)))) (not (= x15 (x153 (x153 x21 x15) x21)))) (not (= x1 (x153 (x153 x21 x1) x21))))) (or (and (and (not (= (x153 (x153 x1 x1) x1) x1)) (and (and (not (= (x153 (x153 x1 x74) x1) x74)) (not (= x122 (x153 (x153 x1 x122) x1)))) (not (= x15 (x153 (x153 x1 x15) x1))))) (not (= (x153 (x153 x1 x21) x1) x21))) (or (or (and (and (not (= x1 (x153 (x153 x122 x1) x122))) (and (not (= (x153 (x153 x122 x15) x122) x15)) (and (not (= x122 (x153 (x153 x122 x122) x122))) (not (= (x153 (x153 x122 x74) x122) x74))))) (not (= x21 (x153 (x153 x122 x21) x122)))) (and (not (= x21 (x153 (x153 x74 x21) x74))) (and (and (and (not (= (x153 (x153 x74 x74) x74) x74)) (not (= x122 (x153 (x153 x74 x122) x74)))) (not (= x15 (x153 (x153 x74 x15) x74)))) (not (= (x153 (x153 x74 x1) x74) x1))))) (and (not (= x21 (x153 (x153 x15 x21) x15))) (and (not (= x1 (x153 (x153 x15 x1) x15))) (and (not (= (x153 (x153 x15 x15) x15) x15)) (and (not (= (x153 (x153 x15 x74) x15) x74)) (not (= x122 (x153 (x153 x15 x122) x15)))))))))))
(assert (and (or (or (or (= (x153 x21 (x153 x21 x15)) x15) (or (= x74 (x153 x21 (x153 x21 x74))) (= x122 (x153 x21 (x153 x21 x122))))) (= (x153 x21 (x153 x21 x1)) x1)) (= (x153 x21 (x153 x21 x21)) x21)) (and (and (or (= x21 (x153 x15 (x153 x15 x21))) (or (or (or (= x122 (x153 x15 (x153 x15 x122))) (= x74 (x153 x15 (x153 x15 x74)))) (= (x153 x15 (x153 x15 x15)) x15)) (= (x153 x15 (x153 x15 x1)) x1))) (and (or (or (= x1 (x153 x122 (x153 x122 x1))) (or (or (= x122 (x153 x122 (x153 x122 x122))) (= x74 (x153 x122 (x153 x122 x74)))) (= x15 (x153 x122 (x153 x122 x15))))) (= x21 (x153 x122 (x153 x122 x21)))) (or (= (x153 x74 (x153 x74 x21)) x21) (or (or (or (= x74 (x153 x74 (x153 x74 x74))) (= x122 (x153 x74 (x153 x74 x122)))) (= (x153 x74 (x153 x74 x15)) x15)) (= (x153 x74 (x153 x74 x1)) x1))))) (or (or (= x1 (x153 x1 (x153 x1 x1))) (or (or (= (x153 x1 (x153 x1 x122)) x122) (= (x153 x1 (x153 x1 x74)) x74)) (= (x153 x1 (x153 x1 x15)) x15))) (= x21 (x153 x1 (x153 x1 x21)))))))
(assert (let ((x107 (x153 x122 x122)) (x71 (x153 x1 x122)) (x8 (x153 x1 x15)) (x101 (x153 x74 x122)) (x50 (x153 x74 x74)) (x143 (x153 x21 x1)) (x46 (x153 x15 x74)) (x137 (x153 x122 x1)) (x29 (x153 x15 x1)) (x135 (x153 x21 x74)) (x7 (x153 x15 x21)) (x38 (x153 x122 x21)) (x65 (x153 x21 x15)) (x81 (x153 x15 x15)) (x24 (x153 x21 x21)) (x131 (x153 x1 x21)) (x30 (x153 x74 x15)) (x62 (x153 x122 x15)) (x127 (x153 x1 x1)) (x138 (x153 x15 x122)) (x98 (x153 x74 x1)) (x147 (x153 x122 x74)) (x72 (x153 x21 x122)) (x47 (x153 x74 x21)) (x49 (x153 x1 x74))) (let ((x148 (not (= x74 x46))) (x73 (not (= x74 x137))) (x23 (not (= x135 x21))) (x75 (not (= x122 x62))) (x27 (not (= x147 x122))) (x96 (not (= x15 x65))) (x115 (not (= x147 x74))) (x151 (not (= x74 x143))) (x152 (not (= x8 x74))) (x22 (not (= x98 x1))) (x93 (not (= x107 x122))) (x78 (not (= x15 x24))) (x61 (not (= x65 x1))) (x82 (not (= x122 x47))) (x48 (not (= x65 x74))) (x51 (not (= x29 x122))) (x125 (not (= x122 x49))) (x119 (not (= x7 x74))) (x149 (not (= x62 x15))) (x89 (not (= x122 x50))) (x145 (not (= x15 x47))) (x42 (not (= x15 x8))) (x110 (not (= x30 x1))) (x57 (not (= x107 x1))) (x58 (not (= x143 x21))) (x91 (not (= x71 x74))) (x9 (not (= x122 x127))) (x54 (not (= x46 x15))) (x109 (not (= x81 x15))) (x37 (not (= x8 x1))) (x144 (not (= x50 x21))) (x105 (not (= x62 x74))) (x133 (not (= x50 x74))) (x86 (not (= x74 x135))) (x17 (not (= x71 x15))) (x31 (not (= x15 x38))) (x126 (not (= x15 x7))) (x116 (not (= x122 x8))) (x113 (not (= x50 x15))) (x157 (not (= x107 x21))) (x11 (not (= x147 x15))) (x10 (not (= x50 x1))) (x60 (not (= x74 x98))) (x79 (not (= x98 x15))) (x114 (not (= x1 x72))) (x108 (not (= x49 x21))) (x88 (not (= x81 x74))) (x87 (not (= x1 x38))) (x99 (not (= x72 x122))) (x59 (not (= x24 x122))) (x70 (not (= x15 x101))) (x84 (not (= x131 x1))) (x100 (not (= x47 x21))) (x55 (not (= x62 x1))) (x44 (not (= x74 x24))) (x16 (not (= x131 x15))) (x104 (not (= x30 x21))) (x68 (not (= x15 x127))) (x124 (not (= x71 x122))) (x80 (not (= x15 x138))) (x64 (not (= x122 x135))) (x40 (not (= x122 x137))) (x139 (not (= x1 x138))) (x28 (not (= x21 x147))) (x158 (not (= x15 x135))) (x3 (not (= x138 x122))) (x121 (not (= x74 x72))) (x43 (not (= x98 x21))) (x39 (not (= x74 x127))) (x112 (not (= x15 x107))) (x118 (not (= x21 x38))) (x141 (not (= x1 x81))) (x36 (not (= x21 x62))) (x32 (not (= x138 x21))) (x14 (not (= x71 x21))) (x5 (not (= x21 x24))) (x130 (not (= x21 x101))) (x95 (not (= x1 x24))) (x35 (not (= x30 x74))) (x76 (not (= x1 x143))) (x142 (not (= x49 x1))) (x136 (not (= x1 x29))) (x26 (not (= x72 x21))) (x67 (not (= x143 x15))) (x34 (not (= x21 x46))) (x63 (not (= x135 x1))) (x77 (not (= x122 x7))) (x19 (not (= x137 x1))) (x25 (not (= x7 x21))) (x18 (not (= x122 x81))) (x120 (not (= x1 x101))) (x150 (not (= x122 x38))) (x129 (not (= x74 x47))) (x20 (not (= x30 x15))) (x13 (not (= x15 x72))) (x12 (not (= x30 x122))) (x6 (not (= x98 x122))) (x156 (not (= x127 x1))) (x83 (not (= x21 x65))) (x134 (not (= x29 x74))) (x90 (not (= x143 x122))) (x123 (not (= x15 x29))) (x45 (not (= x46 x122))) (x33 (not (= x15 x49))) (x102 (not (= x8 x21))) (x41 (not (= x47 x1))) (x103 (not (= x74 x49))) (x146 (not (= x74 x131))) (x155 (not (= x1 x71))) (x117 (not (= x21 x81))) (x4 (not (= x122 x65))) (x52 (not (= x137 x21))) (x111 (not (= x74 x38))) (x66 (not (= x122 x101))) (x159 (not (= x137 x15))) (x69 (not (= x74 x101))) (x140 (not (= x7 x1))) (x97 (not (= x122 x131))) (x56 (not (= x74 x138))) (x106 (not (= x74 x107))) (x132 (not (= x21 x127))) (x92 (not (= x131 x21))) (x53 (not (= x1 x46))) (x85 (not (= x29 x21))) (x154 (not (= x1 x147)))) (or (and (and (and (or x58 x92) (and (or x83 x25) (and (or x23 x100) (or x118 x26)))) (or x5 x5)) (and (and (and (and (or x85 x102) (and (and (or x34 x104) (or x32 x36)) (or x117 x117))) (or x83 x25)) (and (and (or x23 x100) (and (and (and (or x144 x144) (or x130 x28)) (or x34 x104)) (or x108 x43))) (and (or x118 x26) (and (or x52 x14) (and (and (or x28 x130) (or x157 x157)) (or x36 x32)))))) (and (or x58 x92) (and (or x132 x132) (and (and (or x52 x14) (or x43 x108)) (or x102 x85)))))) (or (or (or (and (and (and (or x146 x151) (and (and (or x152 x134) (and (or x91 x73) (or x60 x103))) (or x39 x39))) (and (and (and (or x129 x86) (and (and (and (or x133 x133) (or x115 x69)) (or x148 x35)) (or x103 x60))) (and (and (and (or x56 x105) (and (or x106 x106) (or x69 x115))) (or x73 x91)) (or x121 x111))) (and (and (or x152 x134) (and (and (or x56 x105) (or x148 x35)) (or x88 x88))) (or x119 x48)))) (and (or x44 x44) (and (and (or x119 x48) (and (or x86 x129) (or x121 x111))) (or x146 x151)))) (and (and (and (and (and (and (or x125 x6) (and (and (or x89 x89) (or x27 x66)) (or x12 x45))) (or x82 x64)) (and (and (and (and (or x93 x93) (or x66 x27)) (or x3 x75)) (or x40 x124)) (or x99 x150))) (and (or x4 x77) (and (and (or x18 x18) (and (or x45 x12) (or x3 x75))) (or x116 x51)))) (and (or x97 x90) (and (and (or x116 x51) (and (or x40 x124) (or x125 x6))) (or x9 x9)))) (and (or x59 x59) (and (and (or x4 x77) (and (or x99 x150) (or x64 x82))) (or x97 x90))))) (and (and (and (or x67 x16) (and (or x126 x96) (and (or x145 x158) (or x13 x31)))) (or x78 x78)) (and (and (and (or x126 x96) (and (and (and (or x149 x80) (or x54 x20)) (or x109 x109)) (or x123 x42))) (and (and (or x158 x145) (and (and (or x20 x54) (and (or x11 x70) (or x113 x113))) (or x79 x33))) (and (or x31 x13) (and (or x159 x17) (and (and (or x112 x112) (or x11 x70)) (or x149 x80)))))) (and (or x67 x16) (and (and (and (or x79 x33) (or x159 x17)) (or x42 x123)) (or x68 x68)))))) (and (and (and (or x76 x84) (and (or x156 x156) (and (or x136 x37) (and (or x19 x155) (or x22 x142))))) (and (and (and (and (or x155 x19) (and (and (or x154 x120) (or x57 x57)) (or x55 x139))) (or x87 x114)) (and (and (or x142 x22) (and (and (or x120 x154) (or x10 x10)) (or x53 x110))) (or x63 x41))) (and (or x61 x140) (and (or x37 x136) (and (or x141 x141) (and (or x110 x53) (or x139 x55))))))) (and (and (and (or x140 x61) (and (or x87 x114) (or x41 x63))) (or x84 x76)) (or x95 x95))))))))
(assert (or (and (and (not (= (x153 x21 x1) x1)) (and (and (not (= x74 (x153 x21 x74))) (not (= x122 (x153 x21 x122)))) (not (= x15 (x153 x21 x15))))) (not (= x21 (x153 x21 x21)))) (or (or (and (and (not (= x1 (x153 x15 x1))) (and (and (not (= (x153 x15 x122) x122)) (not (= (x153 x15 x74) x74))) (not (= (x153 x15 x15) x15)))) (not (= x21 (x153 x15 x21)))) (or (and (not (= (x153 x122 x21) x21)) (and (not (= x1 (x153 x122 x1))) (and (and (not (= x122 (x153 x122 x122))) (not (= x74 (x153 x122 x74)))) (not (= (x153 x122 x15) x15))))) (and (not (= (x153 x74 x21) x21)) (and (and (not (= (x153 x74 x15) x15)) (and (not (= (x153 x74 x74) x74)) (not (= x122 (x153 x74 x122))))) (not (= x1 (x153 x74 x1))))))) (and (and (not (= (x153 x1 x1) x1)) (and (and (not (= x74 (x153 x1 x74))) (not (= x122 (x153 x1 x122)))) (not (= x15 (x153 x1 x15))))) (not (= (x153 x1 x21) x21))))))
(assert (or (= (x153 x21 x21) x21) (or (= (x153 x1 x1) x1) (or (= (x153 x15 x15) x15) (or (= x122 (x153 x122 x122)) (= (x153 x74 x74) x74))))))
(assert (or (or (and (not (= (x153 x21 (x153 x1 x21)) x1)) (and (and (not (= (x153 x15 (x153 x1 x15)) x1)) (and (not (= x1 (x153 x122 (x153 x1 x122)))) (not (= x1 (x153 x74 (x153 x1 x74)))))) (not (= (x153 x1 (x153 x1 x1)) x1)))) (or (and (not (= x15 (x153 x21 (x153 x15 x21)))) (and (not (= x15 (x153 x1 (x153 x15 x1)))) (and (and (not (= (x153 x74 (x153 x15 x74)) x15)) (not (= (x153 x122 (x153 x15 x122)) x15))) (not (= (x153 x15 (x153 x15 x15)) x15))))) (or (and (not (= (x153 x21 (x153 x74 x21)) x74)) (and (not (= x74 (x153 x1 (x153 x74 x1)))) (and (not (= x74 (x153 x15 (x153 x74 x15)))) (and (not (= x74 (x153 x74 (x153 x74 x74)))) (not (= x74 (x153 x122 (x153 x74 x122)))))))) (and (not (= (x153 x21 (x153 x122 x21)) x122)) (and (and (and (not (= x122 (x153 x74 (x153 x122 x74)))) (not (= (x153 x122 (x153 x122 x122)) x122))) (not (= x122 (x153 x15 (x153 x122 x15))))) (not (= (x153 x1 (x153 x122 x1)) x122))))))) (and (and (not (= (x153 x1 (x153 x21 x1)) x21)) (and (and (not (= x21 (x153 x122 (x153 x21 x122)))) (not (= (x153 x74 (x153 x21 x74)) x21))) (not (= (x153 x15 (x153 x21 x15)) x21)))) (not (= (x153 x21 (x153 x21 x21)) x21)))))
(assert (and (not (= x1 x21)) (and (not (= x21 x15)) (and (and (not (= x122 x21)) (and (and (and (and (not (= x74 x1)) (and (not (= x74 x15)) (not (= x74 x122)))) (not (= x21 x74))) (not (= x15 x122))) (not (= x122 x1)))) (not (= x1 x15))))))
(assert (let ((x91 (x153 x15 x122)) (x129 (x153 x1 x15)) (x105 (x153 x122 x15)) (x86 (x153 x1 x122)) (x111 (x153 x1 x21)) (x148 (x153 x74 x21)) (x103 (x153 x122 x21)) (x73 (x153 x15 x15)) (x48 (x153 x21 x74)) (x60 (x153 x15 x74)) (x106 (x153 x74 x1)) (x152 (x153 x15 x1)) (x121 (x153 x1 x1)) (x119 (x153 x21 x122)) (x39 (x153 x1 x74)) (x146 (x153 x21 x1)) (x134 (x153 x15 x21)) (x133 (x153 x74 x74)) (x35 (x153 x122 x74)) (x88 (x153 x122 x1)) (x151 (x153 x21 x15)) (x69 (x153 x74 x15)) (x56 (x153 x122 x122)) (x115 (x153 x74 x122)) (x44 (x153 x21 x21))) (and (and (and (and (and (and (and (and (or (or (or (= x133 x15) (or (= x133 x122) (= x133 x74))) (= x1 x133)) (= x133 x21)) (or (= x115 x21) (or (= x1 x115) (or (= x115 x15) (or (= x115 x74) (= x122 x115)))))) (or (or (or (= x69 x15) (or (= x69 x122) (= x74 x69))) (= x1 x69)) (= x21 x69))) (or (or (or (= x15 x106) (or (= x106 x74) (= x106 x122))) (= x106 x1)) (= x106 x21))) (or (= x148 x21) (or (or (= x15 x148) (or (= x122 x148) (= x74 x148))) (= x148 x1)))) (and (or (= x103 x21) (or (= x1 x103) (or (or (= x103 x122) (= x103 x74)) (= x15 x103)))) (and (and (or (or (= x1 x105) (or (= x15 x105) (or (= x105 x122) (= x74 x105)))) (= x21 x105)) (and (or (= x21 x56) (or (= x1 x56) (or (= x15 x56) (or (= x56 x74) (= x56 x122))))) (or (= x35 x21) (or (= x35 x1) (or (= x35 x15) (or (= x35 x74) (= x122 x35))))))) (or (or (= x1 x88) (or (= x15 x88) (or (= x122 x88) (= x74 x88)))) (= x88 x21))))) (and (or (or (or (= x15 x134) (or (= x74 x134) (= x134 x122))) (= x134 x1)) (= x21 x134)) (and (or (= x152 x21) (or (= x1 x152) (or (= x152 x15) (or (= x122 x152) (= x74 x152))))) (and (or (or (= x1 x73) (or (or (= x73 x122) (= x74 x73)) (= x73 x15))) (= x73 x21)) (and (or (or (or (or (= x91 x122) (= x91 x74)) (= x15 x91)) (= x91 x1)) (= x21 x91)) (or (= x21 x60) (or (or (= x60 x15) (or (= x122 x60) (= x60 x74))) (= x1 x60)))))))) (and (and (and (and (or (or (= x1 x86) (or (= x15 x86) (or (= x86 x74) (= x122 x86)))) (= x86 x21)) (or (or (= x1 x39) (or (= x39 x15) (or (= x39 x74) (= x39 x122)))) (= x21 x39))) (or (= x129 x21) (or (= x129 x1) (or (or (= x129 x122) (= x74 x129)) (= x15 x129))))) (or (= x121 x21) (or (or (or (= x121 x122) (= x121 x74)) (= x15 x121)) (= x121 x1)))) (or (= x111 x21) (or (or (= x15 x111) (or (= x111 x74) (= x122 x111))) (= x1 x111))))) (and (and (and (or (or (or (= x15 x151) (or (= x122 x151) (= x74 x151))) (= x1 x151)) (= x21 x151)) (and (or (or (= x1 x48) (or (= x48 x15) (or (= x48 x74) (= x48 x122)))) (= x21 x48)) (or (or (= x1 x119) (or (or (= x119 x74) (= x122 x119)) (= x15 x119))) (= x21 x119)))) (or (= x146 x21) (or (= x1 x146) (or (= x146 x15) (or (= x122 x146) (= x74 x146)))))) (or (= x44 x21) (or (or (or (= x122 x44) (= x44 x74)) (= x44 x15)) (= x1 x44)))))))
(assert (and (= x1 (x153 x21 x74)) (and (= (x153 x1 x74) x15) (and (= x122 (x153 x74 x1)) (= (x153 x21 x21) x74)))))
(assert (and (and (or (not (= x21 (x153 (x153 x21 x1) x1))) (or (not (= (x153 (x153 x1 x1) x1) x1)) (or (or (not (= (x153 (x153 x122 x1) x1) x122)) (not (= (x153 (x153 x74 x1) x1) x74))) (not (= x15 (x153 (x153 x15 x1) x1)))))) (and (or (or (or (or (not (= x122 (x153 (x153 x122 x15) x15))) (not (= x74 (x153 (x153 x74 x15) x15)))) (not (= (x153 (x153 x15 x15) x15) x15))) (not (= (x153 (x153 x1 x15) x15) x1))) (not (= x21 (x153 (x153 x21 x15) x15)))) (and (or (not (= (x153 (x153 x21 x122) x122) x21)) (or (or (not (= x15 (x153 (x153 x15 x122) x122))) (or (not (= (x153 (x153 x74 x122) x122) x74)) (not (= (x153 (x153 x122 x122) x122) x122)))) (not (= (x153 (x153 x1 x122) x122) x1)))) (or (not (= (x153 (x153 x21 x74) x74) x21)) (or (or (not (= x15 (x153 (x153 x15 x74) x74))) (or (not (= x122 (x153 (x153 x122 x74) x74))) (not (= (x153 (x153 x74 x74) x74) x74)))) (not (= (x153 (x153 x1 x74) x74) x1))))))) (or (or (or (not (= x15 (x153 (x153 x15 x21) x21))) (or (not (= (x153 (x153 x122 x21) x21) x122)) (not (= (x153 (x153 x74 x21) x21) x74)))) (not (= (x153 (x153 x1 x21) x21) x1))) (not (= (x153 (x153 x21 x21) x21) x21)))))
(check-sat)
(exit)
